SKUs = {
  "FAN_MOTOR_2_167",
  "FAN_MOTOR_2_183",
  "FAN_MOTOR_2_209",
  "FAN_MOTOR_2_211",
  "FAN_MOTOR_2_213",
  "FAN_MOTOR_2_221",
  "FAN_MOTOR_2_234",
  "FAN_MOTOR_2_242",
  "FAN_MOTOR_2_253",
  "FAN_MOTOR_2_280",
  "FAN_MOTOR_2_284",
  "FAN_MOTOR_2_285",
  "FAN_MOTOR_2_287",
  "FAN_MOTOR_2_292",
  "FAN_MOTOR_2_296",
  "FAN_MOTOR_2_318",
  "FAN_MOTOR_2_328",
  "FAN_MOTOR_2_358",
  "FAN_MOTOR_2_359",
  "FAN_MOTOR_2_362",
  "FAN_MOTOR_2_383",
  "FAN_MOTOR_2_389",
  "FAN_MOTOR_2_401",
  "FAN_MOTOR_2_407",
  "FAN_MOTOR_2_408",
  "FAN_MOTOR_2_410",
  "FAN_MOTOR_2_424",
  "FAN_MOTOR_2_469",
  "FAN_MOTOR_2_485",
  "FAN_MOTOR_2_505",
  "LED_PANEL_1_022",
  "LED_PANEL_1_033",
  "LED_PANEL_1_037",
  "LED_PANEL_1_053",
  "LED_PANEL_1_084",
  "LED_PANEL_1_100",
  "LED_PANEL_1_108",
  "LED_PANEL_1_120",
  "LED_PANEL_1_122",
  "LED_PANEL_1_131",
  "LED_PANEL_1_135",
  "LED_PANEL_1_163",
  "LED_PANEL_1_165",
  "LED_PANEL_1_178",
  "LED_PANEL_1_223",
  "LED_PANEL_1_246",
  "LED_PANEL_1_257",
  "LED_PANEL_1_269",
  "LED_PANEL_1_272",
  "LED_PANEL_1_279",
  "LED_PANEL_1_280",
  "LED_PANEL_1_287",
  "LED_PANEL_1_288",
  "LED_PANEL_1_295",
  "LED_PANEL_1_297",
  "LED_PANEL_1_306",
  "LED_PANEL_1_315",
  "LED_PANEL_1_325",
  "LED_PANEL_1_337",
  "LED_PANEL_1_339",
  "LED_PANEL_1_343",
  "LED_PANEL_1_349",
  "LED_PANEL_1_362",
  "LED_PANEL_1_364",
  "LED_PANEL_1_369",
  "LED_PANEL_1_371",
  "LED_PANEL_1_373",
  "LED_PANEL_1_375",
  "LED_PANEL_1_389",
  "LED_PANEL_1_391",
  "LED_PANEL_1_409",
  "LED_PANEL_2_002",
  "LED_PANEL_2_003",
  "LED_PANEL_2_005",
  "LED_PANEL_2_008",
  "LED_PANEL_2_011",
  "LED_PANEL_2_015",
  "LED_PANEL_2_018",
  "LED_PANEL_2_020",
  "LED_PANEL_2_032",
  "LED_PANEL_2_034",
  "LED_PANEL_2_062",
  "LED_PANEL_2_065",
  "LED_PANEL_2_067",
  "LED_PANEL_2_076",
  "LED_PANEL_2_089",
  "LED_PANEL_2_100",
  "LED_PANEL_2_110",
  "LED_PANEL_2_114",
  "LED_PANEL_2_115",
  "LED_PANEL_2_116",
  "LED_PANEL_2_124",
  "LED_PANEL_2_125",
  "LED_PANEL_2_130",
  "LED_PANEL_2_143",
  "LED_PANEL_2_149"
};

Regions = {
  "CA",
  "TX",
  "WI"
};

unit_cost = #[
  "FAN_MOTOR_2_167": 2.8800,
  "FAN_MOTOR_2_183": 4.7953,
  "FAN_MOTOR_2_209": 8.3237,
  "FAN_MOTOR_2_211": 19.9935,
  "FAN_MOTOR_2_213": 0.9678,
  "FAN_MOTOR_2_221": 2.7700,
  "FAN_MOTOR_2_234": 5.8473,
  "FAN_MOTOR_2_242": 13.1091,
  "FAN_MOTOR_2_253": 5.8517,
  "FAN_MOTOR_2_280": 5.9700,
  "FAN_MOTOR_2_284": 6.1809,
  "FAN_MOTOR_2_285": 4.6700,
  "FAN_MOTOR_2_287": 1.9033,
  "FAN_MOTOR_2_292": 12.8669,
  "FAN_MOTOR_2_296": 4.6492,
  "FAN_MOTOR_2_318": 3.9700,
  "FAN_MOTOR_2_328": 7.1590,
  "FAN_MOTOR_2_358": 4.9700,
  "FAN_MOTOR_2_359": 9.3965,
  "FAN_MOTOR_2_362": 3.7193,
  "FAN_MOTOR_2_383": 3.9384,
  "FAN_MOTOR_2_389": 1.9700,
  "FAN_MOTOR_2_401": 3.3300,
  "FAN_MOTOR_2_407": 4.9400,
  "FAN_MOTOR_2_408": 7.2282,
  "FAN_MOTOR_2_410": 1.3800,
  "FAN_MOTOR_2_424": 2.8800,
  "FAN_MOTOR_2_469": 2.9700,
  "FAN_MOTOR_2_485": 6.9208,
  "FAN_MOTOR_2_505": 4.9700,
  "LED_PANEL_1_022": 7.1328,
  "LED_PANEL_1_033": 16.0568,
  "LED_PANEL_1_037": 12.9042,
  "LED_PANEL_1_053": 3.9700,
  "LED_PANEL_1_084": 4.2231,
  "LED_PANEL_1_100": 11.1954,
  "LED_PANEL_1_108": 12.8209,
  "LED_PANEL_1_120": 10.2895,
  "LED_PANEL_1_122": 1.6300,
  "LED_PANEL_1_131": 0.6908,
  "LED_PANEL_1_135": 18.4494,
  "LED_PANEL_1_163": 8.6400,
  "LED_PANEL_1_165": 4.9700,
  "LED_PANEL_1_178": 0.4759,
  "LED_PANEL_1_223": 1.0465,
  "LED_PANEL_1_246": 10.9800,
  "LED_PANEL_1_257": 16.7600,
  "LED_PANEL_1_269": 11.7300,
  "LED_PANEL_1_272": 8.4400,
  "LED_PANEL_1_279": 3.8667,
  "LED_PANEL_1_280": 10.9251,
  "LED_PANEL_1_287": 5.6803,
  "LED_PANEL_1_288": 0.5647,
  "LED_PANEL_1_295": 0.4763,
  "LED_PANEL_1_297": 14.8810,
  "LED_PANEL_1_306": 13.9800,
  "LED_PANEL_1_315": 4.3613,
  "LED_PANEL_1_325": 6.4400,
  "LED_PANEL_1_337": 3.6700,
  "LED_PANEL_1_339": 7.9800,
  "LED_PANEL_1_343": 5.0193,
  "LED_PANEL_1_349": 11.1932,
  "LED_PANEL_1_362": 9.8530,
  "LED_PANEL_1_364": 12.4416,
  "LED_PANEL_1_369": 0.9979,
  "LED_PANEL_1_371": 0.4756,
  "LED_PANEL_1_373": 14.7200,
  "LED_PANEL_1_375": 9.8800,
  "LED_PANEL_1_389": 11.9700,
  "LED_PANEL_1_391": 3.8560,
  "LED_PANEL_1_409": 5.6988,
  "LED_PANEL_2_002": 1.8213,
  "LED_PANEL_2_003": 1.9700,
  "LED_PANEL_2_005": 4.4700,
  "LED_PANEL_2_008": 3.7837,
  "LED_PANEL_2_011": 0.9700,
  "LED_PANEL_2_015": 2.6736,
  "LED_PANEL_2_018": 3.3700,
  "LED_PANEL_2_020": 3.7870,
  "LED_PANEL_2_032": 0.9825,
  "LED_PANEL_2_034": 2.7756,
  "LED_PANEL_2_062": 5.7385,
  "LED_PANEL_2_065": 0.5000,
  "LED_PANEL_2_067": 2.9700,
  "LED_PANEL_2_076": 2.7708,
  "LED_PANEL_2_089": 2.9700,
  "LED_PANEL_2_100": 0.8459,
  "LED_PANEL_2_110": 5.9700,
  "LED_PANEL_2_114": 2.0661,
  "LED_PANEL_2_115": 2.4974,
  "LED_PANEL_2_116": 2.9700,
  "LED_PANEL_2_124": 0.2300,
  "LED_PANEL_2_125": 0.9623,
  "LED_PANEL_2_130": 6.9956,
  "LED_PANEL_2_143": 1.0166,
  "LED_PANEL_2_149": 1.4298,
]#;

original_holding_cost = #[
  "FAN_MOTOR_2_167": 203.8944,
  "FAN_MOTOR_2_183": 378.7546,
  "FAN_MOTOR_2_209": 383.8404,
  "FAN_MOTOR_2_211": 170.7320,
  "FAN_MOTOR_2_213": 255.9666,
  "FAN_MOTOR_2_221": 303.9871,
  "FAN_MOTOR_2_234": 344.2609,
  "FAN_MOTOR_2_242": 337.9286,
  "FAN_MOTOR_2_253": 180.5808,
  "FAN_MOTOR_2_280": 195.6437,
  "FAN_MOTOR_2_284": 693.8555,
  "FAN_MOTOR_2_285": 302.9615,
  "FAN_MOTOR_2_287": 159.2692,
  "FAN_MOTOR_2_292": 189.8274,
  "FAN_MOTOR_2_296": 290.2607,
  "FAN_MOTOR_2_318": 161.4620,
  "FAN_MOTOR_2_328": 349.5259,
  "FAN_MOTOR_2_358": 127.7616,
  "FAN_MOTOR_2_359": 299.1153,
  "FAN_MOTOR_2_362": 200.8240,
  "FAN_MOTOR_2_383": 392.1482,
  "FAN_MOTOR_2_389": 431.9335,
  "FAN_MOTOR_2_401": 168.8252,
  "FAN_MOTOR_2_407": 218.1438,
  "FAN_MOTOR_2_408": 421.2502,
  "FAN_MOTOR_2_410": 216.4671,
  "FAN_MOTOR_2_424": 265.7832,
  "FAN_MOTOR_2_469": 218.3765,
  "FAN_MOTOR_2_485": 621.5491,
  "FAN_MOTOR_2_505": 506.7825,
  "LED_PANEL_1_022": 530.8212,
  "LED_PANEL_1_033": 558.9430,
  "LED_PANEL_1_037": 832.1782,
  "LED_PANEL_1_053": 440.7550,
  "LED_PANEL_1_084": 307.9391,
  "LED_PANEL_1_100": 644.2471,
  "LED_PANEL_1_108": 873.7751,
  "LED_PANEL_1_120": 413.6282,
  "LED_PANEL_1_122": 212.0794,
  "LED_PANEL_1_131": 263.7951,
  "LED_PANEL_1_135": 577.4415,
  "LED_PANEL_1_163": 320.6205,
  "LED_PANEL_1_165": 381.3458,
  "LED_PANEL_1_178": 315.9988,
  "LED_PANEL_1_223": 168.2647,
  "LED_PANEL_1_246": 474.1616,
  "LED_PANEL_1_257": 616.9848,
  "LED_PANEL_1_269": 560.2833,
  "LED_PANEL_1_272": 171.2773,
  "LED_PANEL_1_279": 314.7946,
  "LED_PANEL_1_280": 627.8839,
  "LED_PANEL_1_287": 508.9161,
  "LED_PANEL_1_288": 288.1237,
  "LED_PANEL_1_295": 291.4760,
  "LED_PANEL_1_297": 563.8095,
  "LED_PANEL_1_306": 778.7849,
  "LED_PANEL_1_315": 297.7749,
  "LED_PANEL_1_325": 154.5771,
  "LED_PANEL_1_337": 517.3316,
  "LED_PANEL_1_339": 727.9243,
  "LED_PANEL_1_343": 473.8494,
  "LED_PANEL_1_349": 448.2114,
  "LED_PANEL_1_362": 580.2813,
  "LED_PANEL_1_364": 821.1011,
  "LED_PANEL_1_369": 251.7114,
  "LED_PANEL_1_371": 261.5929,
  "LED_PANEL_1_373": 965.1006,
  "LED_PANEL_1_375": 138.5623,
  "LED_PANEL_1_389": 419.8358,
  "LED_PANEL_1_391": 258.4529,
  "LED_PANEL_1_409": 537.4567,
  "LED_PANEL_2_002": 184.8395,
  "LED_PANEL_2_003": 132.7507,
  "LED_PANEL_2_005": 104.3432,
  "LED_PANEL_2_008": 156.4953,
  "LED_PANEL_2_011": 111.5288,
  "LED_PANEL_2_015": 140.2709,
  "LED_PANEL_2_018": 199.0745,
  "LED_PANEL_2_020": 181.9050,
  "LED_PANEL_2_032": 105.0203,
  "LED_PANEL_2_034": 148.2461,
  "LED_PANEL_2_062": 186.3391,
  "LED_PANEL_2_065": 70.5020,
  "LED_PANEL_2_067": 203.7829,
  "LED_PANEL_2_076": 289.1351,
  "LED_PANEL_2_089": 352.9008,
  "LED_PANEL_2_100": 108.4939,
  "LED_PANEL_2_110": 89.8362,
  "LED_PANEL_2_114": 119.0836,
  "LED_PANEL_2_115": 285.1742,
  "LED_PANEL_2_116": 204.7921,
  "LED_PANEL_2_124": 62.3710,
  "LED_PANEL_2_125": 68.8965,
  "LED_PANEL_2_130": 332.3912,
  "LED_PANEL_2_143": 81.8951,
  "LED_PANEL_2_149": 131.2708,
]#;

original_ordering_cost = #[
  "FAN_MOTOR_2_167": 131.3487,
  "FAN_MOTOR_2_183": 126.9005,
  "FAN_MOTOR_2_209": 111.4412,
  "FAN_MOTOR_2_211": 86.0631,
  "FAN_MOTOR_2_213": 129.2508,
  "FAN_MOTOR_2_221": 87.8200,
  "FAN_MOTOR_2_234": 99.0004,
  "FAN_MOTOR_2_242": 100.4923,
  "FAN_MOTOR_2_253": 59.2259,
  "FAN_MOTOR_2_280": 91.6874,
  "FAN_MOTOR_2_284": 296.7664,
  "FAN_MOTOR_2_285": 85.4237,
  "FAN_MOTOR_2_287": 53.5416,
  "FAN_MOTOR_2_292": 74.5568,
  "FAN_MOTOR_2_296": 113.0660,
  "FAN_MOTOR_2_318": 54.4062,
  "FAN_MOTOR_2_328": 94.5501,
  "FAN_MOTOR_2_358": 49.4750,
  "FAN_MOTOR_2_359": 107.6810,
  "FAN_MOTOR_2_362": 69.3579,
  "FAN_MOTOR_2_383": 179.7372,
  "FAN_MOTOR_2_389": 223.8685,
  "FAN_MOTOR_2_401": 102.2130,
  "FAN_MOTOR_2_407": 66.4483,
  "FAN_MOTOR_2_408": 178.9716,
  "FAN_MOTOR_2_410": 86.4353,
  "FAN_MOTOR_2_424": 90.7679,
  "FAN_MOTOR_2_469": 69.0953,
  "FAN_MOTOR_2_485": 206.6703,
  "FAN_MOTOR_2_505": 200.9635,
  "LED_PANEL_1_022": 196.5129,
  "LED_PANEL_1_033": 146.2275,
  "LED_PANEL_1_037": 450.7420,
  "LED_PANEL_1_053": 123.1903,
  "LED_PANEL_1_084": 149.4193,
  "LED_PANEL_1_100": 262.9924,
  "LED_PANEL_1_108": 446.5189,
  "LED_PANEL_1_120": 110.8464,
  "LED_PANEL_1_122": 63.8577,
  "LED_PANEL_1_131": 134.5800,
  "LED_PANEL_1_135": 181.7192,
  "LED_PANEL_1_163": 107.0867,
  "LED_PANEL_1_165": 127.3662,
  "LED_PANEL_1_178": 137.3401,
  "LED_PANEL_1_223": 49.8174,
  "LED_PANEL_1_246": 157.4050,
  "LED_PANEL_1_257": 166.7207,
  "LED_PANEL_1_269": 167.9099,
  "LED_PANEL_1_272": 63.6119,
  "LED_PANEL_1_279": 111.3088,
  "LED_PANEL_1_280": 249.5650,
  "LED_PANEL_1_287": 268.4587,
  "LED_PANEL_1_288": 134.3499,
  "LED_PANEL_1_295": 149.0700,
  "LED_PANEL_1_297": 233.3779,
  "LED_PANEL_1_306": 339.4799,
  "LED_PANEL_1_315": 81.1996,
  "LED_PANEL_1_325": 60.9261,
  "LED_PANEL_1_337": 207.5459,
  "LED_PANEL_1_339": 279.7723,
  "LED_PANEL_1_343": 172.8420,
  "LED_PANEL_1_349": 311.2897,
  "LED_PANEL_1_362": 205.7524,
  "LED_PANEL_1_364": 385.5062,
  "LED_PANEL_1_369": 78.5011,
  "LED_PANEL_1_371": 122.4251,
  "LED_PANEL_1_373": 418.7680,
  "LED_PANEL_1_375": 79.2644,
  "LED_PANEL_1_389": 138.2497,
  "LED_PANEL_1_391": 133.7403,
  "LED_PANEL_1_409": 222.2639,
  "LED_PANEL_2_002": 76.4472,
  "LED_PANEL_2_003": 44.5273,
  "LED_PANEL_2_005": 46.7896,
  "LED_PANEL_2_008": 51.8771,
  "LED_PANEL_2_011": 36.0054,
  "LED_PANEL_2_015": 55.6847,
  "LED_PANEL_2_018": 81.5868,
  "LED_PANEL_2_020": 60.6743,
  "LED_PANEL_2_032": 42.0320,
  "LED_PANEL_2_034": 52.0604,
  "LED_PANEL_2_062": 73.4424,
  "LED_PANEL_2_065": 24.8363,
  "LED_PANEL_2_067": 67.4057,
  "LED_PANEL_2_076": 79.1583,
  "LED_PANEL_2_089": 133.9606,
  "LED_PANEL_2_100": 41.6065,
  "LED_PANEL_2_110": 53.7476,
  "LED_PANEL_2_114": 55.3091,
  "LED_PANEL_2_115": 92.4320,
  "LED_PANEL_2_116": 62.8231,
  "LED_PANEL_2_124": 24.9106,
  "LED_PANEL_2_125": 34.6782,
  "LED_PANEL_2_130": 107.9856,
  "LED_PANEL_2_143": 30.2002,
  "LED_PANEL_2_149": 42.1195,
]#;

original_stockout_cost = #[
  "FAN_MOTOR_2_167": 3.3450,
  "FAN_MOTOR_2_183": 3.5991,
  "FAN_MOTOR_2_209": 2.9688,
  "FAN_MOTOR_2_211": 1.6725,
  "FAN_MOTOR_2_213": 3.3099,
  "FAN_MOTOR_2_221": 2.8840,
  "FAN_MOTOR_2_234": 2.6111,
  "FAN_MOTOR_2_242": 2.4415,
  "FAN_MOTOR_2_253": 1.0777,
  "FAN_MOTOR_2_280": 2.0155,
  "FAN_MOTOR_2_284": 13.0138,
  "FAN_MOTOR_2_285": 1.8432,
  "FAN_MOTOR_2_287": 0.9158,
  "FAN_MOTOR_2_292": 1.5541,
  "FAN_MOTOR_2_296": 2.4455,
  "FAN_MOTOR_2_318": 0.8763,
  "FAN_MOTOR_2_328": 2.3250,
  "FAN_MOTOR_2_358": 0.6627,
  "FAN_MOTOR_2_359": 3.4143,
  "FAN_MOTOR_2_362": 1.4955,
  "FAN_MOTOR_2_383": 4.3565,
  "FAN_MOTOR_2_389": 9.9399,
  "FAN_MOTOR_2_401": 2.1424,
  "FAN_MOTOR_2_407": 1.4626,
  "FAN_MOTOR_2_408": 4.2742,
  "FAN_MOTOR_2_410": 1.5269,
  "FAN_MOTOR_2_424": 1.7692,
  "FAN_MOTOR_2_469": 1.6387,
  "FAN_MOTOR_2_485": 7.1797,
  "FAN_MOTOR_2_505": 6.2010,
  "LED_PANEL_1_022": 3.9804,
  "LED_PANEL_1_033": 3.6667,
  "LED_PANEL_1_037": 17.9306,
  "LED_PANEL_1_053": 2.5139,
  "LED_PANEL_1_084": 2.5288,
  "LED_PANEL_1_100": 6.8203,
  "LED_PANEL_1_108": 18.2461,
  "LED_PANEL_1_120": 2.0966,
  "LED_PANEL_1_122": 0.9509,
  "LED_PANEL_1_131": 2.0191,
  "LED_PANEL_1_135": 4.8635,
  "LED_PANEL_1_163": 1.5599,
  "LED_PANEL_1_165": 2.3480,
  "LED_PANEL_1_178": 2.5347,
  "LED_PANEL_1_223": 0.5554,
  "LED_PANEL_1_246": 3.4322,
  "LED_PANEL_1_257": 3.4752,
  "LED_PANEL_1_269": 4.4118,
  "LED_PANEL_1_272": 0.7516,
  "LED_PANEL_1_279": 2.7106,
  "LED_PANEL_1_280": 6.2081,
  "LED_PANEL_1_287": 6.2922,
  "LED_PANEL_1_288": 2.3275,
  "LED_PANEL_1_295": 2.7469,
  "LED_PANEL_1_297": 5.0162,
  "LED_PANEL_1_306": 10.8135,
  "LED_PANEL_1_315": 1.1105,
  "LED_PANEL_1_325": 0.6648,
  "LED_PANEL_1_337": 4.4277,
  "LED_PANEL_1_339": 8.4867,
  "LED_PANEL_1_343": 3.1381,
  "LED_PANEL_1_349": 6.2301,
  "LED_PANEL_1_362": 5.4330,
  "LED_PANEL_1_364": 13.9536,
  "LED_PANEL_1_369": 1.4692,
  "LED_PANEL_1_371": 1.9342,
  "LED_PANEL_1_373": 18.2108,
  "LED_PANEL_1_375": 0.8415,
  "LED_PANEL_1_389": 2.7419,
  "LED_PANEL_1_391": 1.8645,
  "LED_PANEL_1_409": 5.0250,
  "LED_PANEL_2_002": 1.0746,
  "LED_PANEL_2_003": 0.4053,
  "LED_PANEL_2_005": 0.3563,
  "LED_PANEL_2_008": 0.5489,
  "LED_PANEL_2_011": 0.2767,
  "LED_PANEL_2_015": 0.5765,
  "LED_PANEL_2_018": 1.2084,
  "LED_PANEL_2_020": 0.7428,
  "LED_PANEL_2_032": 0.3217,
  "LED_PANEL_2_034": 0.5393,
  "LED_PANEL_2_062": 0.9685,
  "LED_PANEL_2_065": 0.1228,
  "LED_PANEL_2_067": 0.9707,
  "LED_PANEL_2_076": 1.1119,
  "LED_PANEL_2_089": 2.5024,
  "LED_PANEL_2_100": 0.3191,
  "LED_PANEL_2_110": 0.3804,
  "LED_PANEL_2_114": 0.4991,
  "LED_PANEL_2_115": 1.2616,
  "LED_PANEL_2_116": 0.8782,
  "LED_PANEL_2_124": 0.1133,
  "LED_PANEL_2_125": 0.1793,
  "LED_PANEL_2_130": 1.6995,
  "LED_PANEL_2_143": 0.1721,
  "LED_PANEL_2_149": 0.3858,
]#;

original_avg_inventory = #[
  "FAN_MOTOR_2_167": 360.1007,
  "FAN_MOTOR_2_183": 361.9324,
  "FAN_MOTOR_2_209": 196.4303,
  "FAN_MOTOR_2_211": 39.8399,
  "FAN_MOTOR_2_213": 1614.1391,
  "FAN_MOTOR_2_221": 483.3832,
  "FAN_MOTOR_2_234": 276.1262,
  "FAN_MOTOR_2_242": 113.6670,
  "FAN_MOTOR_2_253": 126.5641,
  "FAN_MOTOR_2_280": 150.0405,
  "FAN_MOTOR_2_284": 581.1561,
  "FAN_MOTOR_2_285": 282.5424,
  "FAN_MOTOR_2_287": 365.6923,
  "FAN_MOTOR_2_292": 66.1896,
  "FAN_MOTOR_2_296": 284.9073,
  "FAN_MOTOR_2_318": 165.0604,
  "FAN_MOTOR_2_328": 210.4940,
  "FAN_MOTOR_2_358": 109.6075,
  "FAN_MOTOR_2_359": 137.8165,
  "FAN_MOTOR_2_362": 236.1024,
  "FAN_MOTOR_2_383": 502.5989,
  "FAN_MOTOR_2_389": 1376.8113,
  "FAN_MOTOR_2_401": 256.2921,
  "FAN_MOTOR_2_407": 181.5507,
  "FAN_MOTOR_2_408": 270.1159,
  "FAN_MOTOR_2_410": 781.6453,
  "FAN_MOTOR_2_424": 413.6332,
  "FAN_MOTOR_2_469": 325.2092,
  "FAN_MOTOR_2_485": 411.2342,
  "FAN_MOTOR_2_505": 507.3792,
  "LED_PANEL_1_022": 349.1269,
  "LED_PANEL_1_033": 144.1947,
  "LED_PANEL_1_037": 379.5952,
  "LED_PANEL_1_053": 473.0236,
  "LED_PANEL_1_084": 367.8854,
  "LED_PANEL_1_100": 285.4155,
  "LED_PANEL_1_108": 394.4451,
  "LED_PANEL_1_120": 169.5129,
  "LED_PANEL_1_122": 558.2499,
  "LED_PANEL_1_131": 1992.8060,
  "LED_PANEL_1_135": 134.0675,
  "LED_PANEL_1_163": 155.1391,
  "LED_PANEL_1_165": 340.8241,
  "LED_PANEL_1_178": 3558.8386,
  "LED_PANEL_1_223": 650.9807,
  "LED_PANEL_1_246": 183.5238,
  "LED_PANEL_1_257": 153.4474,
  "LED_PANEL_1_269": 207.0237,
  "LED_PANEL_1_272": 85.5737,
  "LED_PANEL_1_279": 385.2553,
  "LED_PANEL_1_280": 280.1530,
  "LED_PANEL_1_287": 506.5597,
  "LED_PANEL_1_288": 2812.2965,
  "LED_PANEL_1_295": 3545.7236,
  "LED_PANEL_1_297": 177.8798,
  "LED_PANEL_1_306": 281.0806,
  "LED_PANEL_1_315": 288.4793,
  "LED_PANEL_1_325": 103.6359,
  "LED_PANEL_1_337": 714.2388,
  "LED_PANEL_1_339": 468.1470,
  "LED_PANEL_1_343": 444.4305,
  "LED_PANEL_1_349": 220.2084,
  "LED_PANEL_1_362": 247.3905,
  "LED_PANEL_1_364": 358.5003,
  "LED_PANEL_1_369": 1147.6739,
  "LED_PANEL_1_371": 3047.1380,
  "LED_PANEL_1_373": 366.7935,
  "LED_PANEL_1_375": 65.9860,
  "LED_PANEL_1_389": 152.6616,
  "LED_PANEL_1_391": 332.3085,
  "LED_PANEL_1_409": 487.8571,
  "LED_PANEL_2_002": 471.4204,
  "LED_PANEL_2_003": 281.8633,
  "LED_PANEL_2_005": 104.1774,
  "LED_PANEL_2_008": 170.7943,
  "LED_PANEL_2_011": 483.5637,
  "LED_PANEL_2_015": 236.6948,
  "LED_PANEL_2_018": 268.9842,
  "LED_PANEL_2_020": 197.4578,
  "LED_PANEL_2_032": 475.2334,
  "LED_PANEL_2_034": 227.9656,
  "LED_PANEL_2_062": 140.7124,
  "LED_PANEL_2_065": 602.6676,
  "LED_PANEL_2_067": 296.6112,
  "LED_PANEL_2_076": 465.2781,
  "LED_PANEL_2_089": 577.6233,
  "LED_PANEL_2_100": 552.7590,
  "LED_PANEL_2_110": 72.6126,
  "LED_PANEL_2_114": 266.8985,
  "LED_PANEL_2_115": 501.9089,
  "LED_PANEL_2_116": 287.6135,
  "LED_PANEL_2_124": 1205.2362,
  "LED_PANEL_2_125": 327.9215,
  "LED_PANEL_2_130": 207.2431,
  "LED_PANEL_2_143": 341.8727,
  "LED_PANEL_2_149": 391.0442,
]#;

original_service_level = #[
  "FAN_MOTOR_2_167": 0.9500,
  "FAN_MOTOR_2_183": 0.9500,
  "FAN_MOTOR_2_209": 0.9500,
  "FAN_MOTOR_2_211": 0.9500,
  "FAN_MOTOR_2_213": 0.9500,
  "FAN_MOTOR_2_221": 0.9500,
  "FAN_MOTOR_2_234": 0.9500,
  "FAN_MOTOR_2_242": 0.9500,
  "FAN_MOTOR_2_253": 0.9500,
  "FAN_MOTOR_2_280": 0.9500,
  "FAN_MOTOR_2_284": 0.9500,
  "FAN_MOTOR_2_285": 0.9500,
  "FAN_MOTOR_2_287": 0.9500,
  "FAN_MOTOR_2_292": 0.9500,
  "FAN_MOTOR_2_296": 0.9500,
  "FAN_MOTOR_2_318": 0.9500,
  "FAN_MOTOR_2_328": 0.9500,
  "FAN_MOTOR_2_358": 0.9500,
  "FAN_MOTOR_2_359": 0.9500,
  "FAN_MOTOR_2_362": 0.9500,
  "FAN_MOTOR_2_383": 0.9500,
  "FAN_MOTOR_2_389": 0.9500,
  "FAN_MOTOR_2_401": 0.9500,
  "FAN_MOTOR_2_407": 0.9500,
  "FAN_MOTOR_2_408": 0.9500,
  "FAN_MOTOR_2_410": 0.9500,
  "FAN_MOTOR_2_424": 0.9500,
  "FAN_MOTOR_2_469": 0.9500,
  "FAN_MOTOR_2_485": 0.9500,
  "FAN_MOTOR_2_505": 0.9500,
  "LED_PANEL_1_022": 0.9500,
  "LED_PANEL_1_033": 0.9500,
  "LED_PANEL_1_037": 0.9500,
  "LED_PANEL_1_053": 0.9500,
  "LED_PANEL_1_084": 0.9500,
  "LED_PANEL_1_100": 0.9500,
  "LED_PANEL_1_108": 0.9500,
  "LED_PANEL_1_120": 0.9500,
  "LED_PANEL_1_122": 0.9500,
  "LED_PANEL_1_131": 0.9500,
  "LED_PANEL_1_135": 0.9500,
  "LED_PANEL_1_163": 0.9500,
  "LED_PANEL_1_165": 0.9500,
  "LED_PANEL_1_178": 0.9500,
  "LED_PANEL_1_223": 0.9500,
  "LED_PANEL_1_246": 0.9500,
  "LED_PANEL_1_257": 0.9500,
  "LED_PANEL_1_269": 0.9500,
  "LED_PANEL_1_272": 0.9500,
  "LED_PANEL_1_279": 0.9500,
  "LED_PANEL_1_280": 0.9500,
  "LED_PANEL_1_287": 0.9500,
  "LED_PANEL_1_288": 0.9500,
  "LED_PANEL_1_295": 0.9500,
  "LED_PANEL_1_297": 0.9500,
  "LED_PANEL_1_306": 0.9500,
  "LED_PANEL_1_315": 0.9500,
  "LED_PANEL_1_325": 0.9500,
  "LED_PANEL_1_337": 0.9500,
  "LED_PANEL_1_339": 0.9500,
  "LED_PANEL_1_343": 0.9500,
  "LED_PANEL_1_349": 0.9500,
  "LED_PANEL_1_362": 0.9500,
  "LED_PANEL_1_364": 0.9500,
  "LED_PANEL_1_369": 0.9500,
  "LED_PANEL_1_371": 0.9500,
  "LED_PANEL_1_373": 0.9500,
  "LED_PANEL_1_375": 0.9500,
  "LED_PANEL_1_389": 0.9500,
  "LED_PANEL_1_391": 0.9500,
  "LED_PANEL_1_409": 0.9500,
  "LED_PANEL_2_002": 0.9500,
  "LED_PANEL_2_003": 0.9500,
  "LED_PANEL_2_005": 0.9500,
  "LED_PANEL_2_008": 0.9500,
  "LED_PANEL_2_011": 0.9500,
  "LED_PANEL_2_015": 0.9500,
  "LED_PANEL_2_018": 0.9500,
  "LED_PANEL_2_020": 0.9500,
  "LED_PANEL_2_032": 0.9500,
  "LED_PANEL_2_034": 0.9500,
  "LED_PANEL_2_062": 0.9500,
  "LED_PANEL_2_065": 0.9500,
  "LED_PANEL_2_067": 0.9500,
  "LED_PANEL_2_076": 0.9500,
  "LED_PANEL_2_089": 0.9500,
  "LED_PANEL_2_100": 0.9500,
  "LED_PANEL_2_110": 0.9500,
  "LED_PANEL_2_114": 0.9500,
  "LED_PANEL_2_115": 0.9500,
  "LED_PANEL_2_116": 0.9500,
  "LED_PANEL_2_124": 0.9500,
  "LED_PANEL_2_125": 0.9500,
  "LED_PANEL_2_130": 0.9500,
  "LED_PANEL_2_143": 0.9500,
  "LED_PANEL_2_149": 0.9500,
]#;

ABC_Class = #[
  "FAN_MOTOR_2_167": "C",
  "FAN_MOTOR_2_183": "B",
  "FAN_MOTOR_2_209": "B",
  "FAN_MOTOR_2_211": "C",
  "FAN_MOTOR_2_213": "B",
  "FAN_MOTOR_2_221": "C",
  "FAN_MOTOR_2_234": "B",
  "FAN_MOTOR_2_242": "B",
  "FAN_MOTOR_2_253": "C",
  "FAN_MOTOR_2_280": "C",
  "FAN_MOTOR_2_284": "A",
  "FAN_MOTOR_2_285": "B",
  "FAN_MOTOR_2_287": "C",
  "FAN_MOTOR_2_292": "C",
  "FAN_MOTOR_2_296": "B",
  "FAN_MOTOR_2_318": "C",
  "FAN_MOTOR_2_328": "B",
  "FAN_MOTOR_2_358": "C",
  "FAN_MOTOR_2_359": "C",
  "FAN_MOTOR_2_362": "C",
  "FAN_MOTOR_2_383": "A",
  "FAN_MOTOR_2_389": "B",
  "FAN_MOTOR_2_401": "C",
  "FAN_MOTOR_2_407": "C",
  "FAN_MOTOR_2_408": "A",
  "FAN_MOTOR_2_410": "B",
  "FAN_MOTOR_2_424": "B",
  "FAN_MOTOR_2_469": "C",
  "FAN_MOTOR_2_485": "A",
  "FAN_MOTOR_2_505": "A",
  "LED_PANEL_1_022": "A",
  "LED_PANEL_1_033": "B",
  "LED_PANEL_1_037": "A",
  "LED_PANEL_1_053": "B",
  "LED_PANEL_1_084": "B",
  "LED_PANEL_1_100": "A",
  "LED_PANEL_1_108": "A",
  "LED_PANEL_1_120": "B",
  "LED_PANEL_1_122": "C",
  "LED_PANEL_1_131": "B",
  "LED_PANEL_1_135": "B",
  "LED_PANEL_1_163": "B",
  "LED_PANEL_1_165": "B",
  "LED_PANEL_1_178": "B",
  "LED_PANEL_1_223": "C",
  "LED_PANEL_1_246": "B",
  "LED_PANEL_1_257": "A",
  "LED_PANEL_1_269": "B",
  "LED_PANEL_1_272": "C",
  "LED_PANEL_1_279": "C",
  "LED_PANEL_1_280": "A",
  "LED_PANEL_1_287": "A",
  "LED_PANEL_1_288": "B",
  "LED_PANEL_1_295": "B",
  "LED_PANEL_1_297": "A",
  "LED_PANEL_1_306": "A",
  "LED_PANEL_1_315": "B",
  "LED_PANEL_1_325": "C",
  "LED_PANEL_1_337": "A",
  "LED_PANEL_1_339": "A",
  "LED_PANEL_1_343": "A",
  "LED_PANEL_1_349": "A",
  "LED_PANEL_1_362": "B",
  "LED_PANEL_1_364": "A",
  "LED_PANEL_1_369": "C",
  "LED_PANEL_1_371": "B",
  "LED_PANEL_1_373": "A",
  "LED_PANEL_1_375": "C",
  "LED_PANEL_1_389": "B",
  "LED_PANEL_1_391": "B",
  "LED_PANEL_1_409": "A",
  "LED_PANEL_2_002": "C",
  "LED_PANEL_2_003": "C",
  "LED_PANEL_2_005": "C",
  "LED_PANEL_2_008": "C",
  "LED_PANEL_2_011": "C",
  "LED_PANEL_2_015": "C",
  "LED_PANEL_2_018": "C",
  "LED_PANEL_2_020": "C",
  "LED_PANEL_2_032": "C",
  "LED_PANEL_2_034": "C",
  "LED_PANEL_2_062": "C",
  "LED_PANEL_2_065": "C",
  "LED_PANEL_2_067": "C",
  "LED_PANEL_2_076": "B",
  "LED_PANEL_2_089": "B",
  "LED_PANEL_2_100": "C",
  "LED_PANEL_2_110": "C",
  "LED_PANEL_2_114": "C",
  "LED_PANEL_2_115": "B",
  "LED_PANEL_2_116": "C",
  "LED_PANEL_2_124": "C",
  "LED_PANEL_2_125": "C",
  "LED_PANEL_2_130": "B",
  "LED_PANEL_2_143": "C",
  "LED_PANEL_2_149": "C",
]#;

sku_to_region = #[
  "FAN_MOTOR_2_167": "TX",
  "FAN_MOTOR_2_183": "TX",
  "FAN_MOTOR_2_209": "WI",
  "FAN_MOTOR_2_211": "WI",
  "FAN_MOTOR_2_213": "TX",
  "FAN_MOTOR_2_221": "TX",
  "FAN_MOTOR_2_234": "CA",
  "FAN_MOTOR_2_242": "TX",
  "FAN_MOTOR_2_253": "CA",
  "FAN_MOTOR_2_280": "TX",
  "FAN_MOTOR_2_284": "CA",
  "FAN_MOTOR_2_285": "CA",
  "FAN_MOTOR_2_287": "WI",
  "FAN_MOTOR_2_292": "WI",
  "FAN_MOTOR_2_296": "TX",
  "FAN_MOTOR_2_318": "CA",
  "FAN_MOTOR_2_328": "TX",
  "FAN_MOTOR_2_358": "CA",
  "FAN_MOTOR_2_359": "TX",
  "FAN_MOTOR_2_362": "CA",
  "FAN_MOTOR_2_383": "CA",
  "FAN_MOTOR_2_389": "CA",
  "FAN_MOTOR_2_401": "CA",
  "FAN_MOTOR_2_407": "TX",
  "FAN_MOTOR_2_408": "CA",
  "FAN_MOTOR_2_410": "TX",
  "FAN_MOTOR_2_424": "TX",
  "FAN_MOTOR_2_469": "TX",
  "FAN_MOTOR_2_485": "TX",
  "FAN_MOTOR_2_505": "CA",
  "LED_PANEL_1_022": "TX",
  "LED_PANEL_1_033": "TX",
  "LED_PANEL_1_037": "CA",
  "LED_PANEL_1_053": "TX",
  "LED_PANEL_1_084": "TX",
  "LED_PANEL_1_100": "CA",
  "LED_PANEL_1_108": "WI",
  "LED_PANEL_1_120": "WI",
  "LED_PANEL_1_122": "TX",
  "LED_PANEL_1_131": "TX",
  "LED_PANEL_1_135": "TX",
  "LED_PANEL_1_163": "TX",
  "LED_PANEL_1_165": "CA",
  "LED_PANEL_1_178": "CA",
  "LED_PANEL_1_223": "WI",
  "LED_PANEL_1_246": "WI",
  "LED_PANEL_1_257": "CA",
  "LED_PANEL_1_269": "TX",
  "LED_PANEL_1_272": "TX",
  "LED_PANEL_1_279": "CA",
  "LED_PANEL_1_280": "CA",
  "LED_PANEL_1_287": "CA",
  "LED_PANEL_1_288": "CA",
  "LED_PANEL_1_295": "CA",
  "LED_PANEL_1_297": "TX",
  "LED_PANEL_1_306": "CA",
  "LED_PANEL_1_315": "WI",
  "LED_PANEL_1_325": "CA",
  "LED_PANEL_1_337": "WI",
  "LED_PANEL_1_339": "CA",
  "LED_PANEL_1_343": "WI",
  "LED_PANEL_1_349": "TX",
  "LED_PANEL_1_362": "CA",
  "LED_PANEL_1_364": "CA",
  "LED_PANEL_1_369": "WI",
  "LED_PANEL_1_371": "WI",
  "LED_PANEL_1_373": "WI",
  "LED_PANEL_1_375": "WI",
  "LED_PANEL_1_389": "CA",
  "LED_PANEL_1_391": "TX",
  "LED_PANEL_1_409": "TX",
  "LED_PANEL_2_002": "TX",
  "LED_PANEL_2_003": "CA",
  "LED_PANEL_2_005": "WI",
  "LED_PANEL_2_008": "CA",
  "LED_PANEL_2_011": "WI",
  "LED_PANEL_2_015": "TX",
  "LED_PANEL_2_018": "WI",
  "LED_PANEL_2_020": "TX",
  "LED_PANEL_2_032": "TX",
  "LED_PANEL_2_034": "CA",
  "LED_PANEL_2_062": "WI",
  "LED_PANEL_2_065": "TX",
  "LED_PANEL_2_067": "WI",
  "LED_PANEL_2_076": "CA",
  "LED_PANEL_2_089": "CA",
  "LED_PANEL_2_100": "TX",
  "LED_PANEL_2_110": "CA",
  "LED_PANEL_2_114": "CA",
  "LED_PANEL_2_115": "WI",
  "LED_PANEL_2_116": "CA",
  "LED_PANEL_2_124": "WI",
  "LED_PANEL_2_125": "TX",
  "LED_PANEL_2_130": "WI",
  "LED_PANEL_2_143": "TX",
  "LED_PANEL_2_149": "WI",
]#;

regional_inventory_budget = #[
  "TX": 750000.00,
  "CA": 500000.00,
  "WI": 400000.00,
]#;

